minizinc/sudoku_problems2/sudoku_p75.dzn
%
% sudoku_p75.dzn
% See http://www.hakank.org/minizinc/sudoku_gcc.mzn
% 
% This problem is problem 75 from
% Gecode's sudoku.cpp
% http://www.gecode.org/gecode-doc-latest/sudoku_8cpp-source.html
% 
x = array2d(1..n, 1..n, [   
% http://janko.at/Raetsel/Sudoku/587.a.htm
% 75
  6, 13,  _,  5, 15,  _, 11,  8,  3,  _,  _,  7,  _,  _,  _,  _,
  _, 15,  _,  7,  6,  1,  _,  _,  _,  8,  5,  4,  _, 10,  _,  _,
  3,  9,  _,  8,  _, 13,  _,  _, 11,  _,  _, 14, 15,  _,  6,  _,
  _,  _, 14,  _,  3,  _,  9,  5,  6, 15,  _,  _,  _, 12, 11,  1,
 15,  6,  5,  _,  _,  _,  _,  _,  _, 16, 11, 10,  _,  _,  _,  2,
  _,  _,  _,  3,  _,  6, 12,  7, 13,  9,  _,  _,  _,  8,  _, 11,
  _,  _, 13, 14,  _,  _,  8,  2, 15,  _,  7,  _,  _,  _,  5,  _,
 11,  _,  7,  _, 13, 15,  _,  _,  _,  _,  3,  _,  6,  1,  9,  _,
  _, 10,  9, 11,  _,  5,  _,  _,  _,  _,  8,  1,  _, 15,  _,  6,
  _,  3,  _,  _,  _, 14,  _, 11, 16,  5,  _,  _,  1,  2,  _,  _,
 12,  _, 16,  _,  _,  _, 13, 15,  7, 11,  9,  _, 10,  _,  _,  _,
  5,  _,  _,  _,  1, 12,  6,  _,  _,  _,  _,  _,  _, 11,  8,  4,
  7, 14,  6,  _,  _,  _, 15,  9,  1, 10,  _, 11,  _,  3,  _,  _,
  _,  5,  _,  9, 10,  _,  _, 13,  _,  _,  6,  _, 11,  _,  2, 14,
  _,  _, 10,  _, 11, 16,  5,  _,  _,  _, 15,  9,  7,  _,  1,  _,
  _,  _,  _,  _,  2,  _,  _,  6,  5, 14,  _,  8, 12,  _, 10, 15
]);

n = 16;


